Optimal - objective value 4069.00000000
      7 x_0_8                   1                     136
     19 x_1_2                   1                       0
     49 x_2_14                  1                       0
     71 x_3_18                  1                      32
     84 x_4_13                  1                    -288
    100 x_5_11                  1                       0
    109 x_6_1                   1                       0
    129 x_7_3                   1                       0
    151 x_8_7                   1                     -75
    168 x_9_6                   1                     464
    180 x_10_0                  1                       0
    207 x_11_9                  1                     111
    230 x_12_15                 1                      85
    244 x_13_10                 1                     -23
    267 x_14_16                 1                       0
    286 x_15_17                 1                     505
    300 x_16_12                 1                       0
    310 x_17_4                  1                       0
    329 x_18_5                  1                       0
    342 u_1                     9                       0
    343 u_2                    10                       0
    344 u_3                     3                       0
    345 u_4                    16                       0
    346 u_5                     5                       0
    347 u_6                     8                       0
    348 u_7                     2                       0
    349 u_8                     1                       0
    350 u_9                     7                       0
    351 u_10                   18                       0
    352 u_11                    6                       0
    353 u_12                   13                       0
    354 u_13                   17                       0
    355 u_14                   11                       0
    356 u_15                   14                       0
    357 u_16                   12                       0
    358 u_17                   15                       0
    359 u_18                    4                       0
